c t mc
c file mc2022_track1_027.cnf
p cnf 1192 1205
-1  -2 0
1 2 0
-2 3 0
2  -3 0
-3  -4 0
3 4 0
-4 5 0
4  -5 0
-5  -6 0
5 6 0
-6 7 0
6  -7 0
-7 8 0
7  -8 0
-8 -271 9 0
-8 271 -9 0
8 -272 9 0
8 272 -9 0
-9 10 0
9  -10 0
-10 11 0
10  -11 0
-11  -12 0
11 12 0
-12 -279 13 0
-12 279 -13 0
12 -280 13 0
12 280 -13 0
-13 14 0
13  -14 0
-14  -15 0
14 15 0
-15  -16 0
15 16 0
-1 17 0
1  -17 0
-17 -2  -18 0
-17 2 18 0
17 -2  -18 0
17 2  -18 0
-18 -3  -19 0
-18 3 19 0
18 -3 19 0
18 3  -19 0
-19 -4 -297 20 0
-19 -4 297 -20 0
-19 4 -298 20 0
-19 4 298 -20 0
19 -4 -299 20 0
19 -4 299 -20 0
19 4 -300 20 0
19 4 300 -20 0
-20 -5  -21 0
-20 5 21 0
20 -5 21 0
20 5  -21 0
-21 -6 22 0
-21 6  -22 0
21 -6  -22 0
21 6  -22 0
-22 -7  -23 0
-22 7 23 0
22 -7 23 0
22 7 23 0
-23 -8 24 0
-23 8  -24 0
23 -8 24 0
23 8  -24 0
-24 -9  -25 0
-24 9  -25 0
24 -9 25 0
24 9 25 0
-25 -10  -26 0
-25 10 26 0
25 -10 26 0
25 10  -26 0
-26 -11 -325 27 0
-26 -11 325 -27 0
-26 11 -326 27 0
-26 11 326 -27 0
26 -11 -327 27 0
26 -11 327 -27 0
26 11 -328 27 0
26 11 328 -27 0
-27 -12 -329 28 0
-27 -12 329 -28 0
-27 12 -330 28 0
-27 12 330 -28 0
27 -12 -331 28 0
27 -12 331 -28 0
27 12 -332 28 0
27 12 332 -28 0
-28 -13  -29 0
-28 13 29 0
28 -13  -29 0
28 13  -29 0
-29 -14 -337 30 0
-29 -14 337 -30 0
-29 14 -338 30 0
-29 14 338 -30 0
29 -14 -339 30 0
29 -14 339 -30 0
29 14 -340 30 0
29 14 340 -30 0
-30 -15  -31 0
-30 15 31 0
30 -15  -31 0
30 15  -31 0
-31 -16 -345 32 0
-31 -16 345 -32 0
-31 16 -346 32 0
-31 16 346 -32 0
31 -16 -347 32 0
31 -16 347 -32 0
31 16 -348 32 0
31 16 348 -32 0
-17 -349 33 0
-17 349 -33 0
17 -350 33 0
17 350 -33 0
-33 -18  -34 0
-33 18 34 0
33 -18 34 0
33 18 34 0
-34 -19 35 0
-34 19 35 0
34 -19  -35 0
34 19 35 0
-35 -20 36 0
-35 20 36 0
35 -20 36 0
35 20  -36 0
-36 -21 37 0
-36 21  -37 0
36 -21  -37 0
36 21  -37 0
-37 -22 38 0
-37 22  -38 0
37 -22 38 0
37 22 38 0
-38 -23 39 0
-38 23 39 0
38 -23  -39 0
38 23  -39 0
-39 -24  -40 0
-39 24 40 0
39 -24  -40 0
39 24 40 0
-40 -25 41 0
-40 25  -41 0
40 -25 41 0
40 25  -41 0
-41 -26  -42 0
-41 26 42 0
41 -26 42 0
41 26 42 0
-42 -27 43 0
-42 27 43 0
42 -27  -43 0
42 27  -43 0
-43 -28 -391 44 0
-43 -28 391 -44 0
-43 28 -392 44 0
-43 28 392 -44 0
43 -28 -393 44 0
43 -28 393 -44 0
43 28 -394 44 0
43 28 394 -44 0
-44 -29 45 0
-44 29  -45 0
44 -29 45 0
44 29  -45 0
-45 -30 46 0
-45 30  -46 0
45 -30 46 0
45 30  -46 0
-46 -31 47 0
-46 31 47 0
46 -31 47 0
46 31  -47 0
-47 -32 48 0
-47 32  -48 0
47 -32 48 0
47 32  -48 0
-33 49 0
33  -49 0
-49 -34 50 0
-49 34 50 0
49 -34  -50 0
49 34 50 0
-50 -35 51 0
-50 35  -51 0
50 -35 51 0
50 35 51 0
-51 -36 52 0
-51 36  -52 0
51 -36  -52 0
51 36 52 0
-52 -37  -53 0
-52 37  -53 0
52 -37 53 0
52 37 53 0
-53 -38 54 0
-53 38  -54 0
53 -38  -54 0
53 38 54 0
-54 -39 -433 55 0
-54 -39 433 -55 0
-54 39 -434 55 0
-54 39 434 -55 0
54 -39 -435 55 0
54 -39 435 -55 0
54 39 -436 55 0
54 39 436 -55 0
-55 -40 -437 56 0
-55 -40 437 -56 0
-55 40 -438 56 0
-55 40 438 -56 0
55 -40 -439 56 0
55 -40 439 -56 0
55 40 -440 56 0
55 40 440 -56 0
-56 -41  -57 0
-56 41 57 0
56 -41 57 0
56 41 57 0
-57 -42 58 0
-57 42  -58 0
57 -42  -58 0
57 42 58 0
-58 -43  -59 0
-58 43 59 0
58 -43 59 0
58 43 59 0
-59 -44  -60 0
-59 44  -60 0
59 -44 60 0
59 44  -60 0
-60 -45 61 0
-60 45 61 0
60 -45  -61 0
60 45 61 0
-61 -46  -62 0
-61 46  -62 0
61 -46 62 0
61 46 62 0
-62 -47  -63 0
-62 47 63 0
62 -47  -63 0
62 47  -63 0
-63 -48  -64 0
-63 48 64 0
63 -48  -64 0
63 48 64 0
-49 -473 65 0
-49 473 -65 0
49 -474 65 0
49 474 -65 0
-65 -50 -475 66 0
-65 -50 475 -66 0
-65 50 -476 66 0
-65 50 476 -66 0
65 -50 -477 66 0
65 -50 477 -66 0
65 50 -478 66 0
65 50 478 -66 0
-66 -51  -67 0
-66 51 67 0
66 -51  -67 0
66 51 67 0
-67 -52  -68 0
-67 52  -68 0
67 -52 68 0
67 52  -68 0
-68 -53  -69 0
-68 53 69 0
68 -53  -69 0
68 53 69 0
-69 -54  -70 0
-69 54  -70 0
69 -54 70 0
69 54 70 0
-70 -55 -495 71 0
-70 -55 495 -71 0
-70 55 -496 71 0
-70 55 496 -71 0
70 -55 -497 71 0
70 -55 497 -71 0
70 55 -498 71 0
70 55 498 -71 0
-71 -56  -72 0
-71 56  -72 0
71 -56  -72 0
71 56 72 0
-72 -57  -73 0
-72 57 73 0
72 -57 73 0
72 57 73 0
-73 -58  -74 0
-73 58 74 0
73 -58 74 0
73 58  -74 0
-74 -59 75 0
-74 59  -75 0
74 -59 75 0
74 59 75 0
-75 -60  -76 0
-75 60 76 0
75 -60  -76 0
75 60 76 0
-76 -61  -77 0
-76 61  -77 0
76 -61 77 0
76 61  -77 0
-77 -62 -523 78 0
-77 -62 523 -78 0
-77 62 -524 78 0
-77 62 524 -78 0
77 -62 -525 78 0
77 -62 525 -78 0
77 62 -526 78 0
77 62 526 -78 0
-78 -63  -79 0
-78 63  -79 0
78 -63 79 0
78 63  -79 0
-79 -64 80 0
-79 64  -80 0
79 -64  -80 0
79 64  -80 0
-65  -81 0
65 81 0
-81 -66 82 0
-81 66 82 0
81 -66  -82 0
81 66 82 0
-82 -67 83 0
-82 67 83 0
82 -67 83 0
82 67  -83 0
-83 -68 -545 84 0
-83 -68 545 -84 0
-83 68 -546 84 0
-83 68 546 -84 0
83 -68 -547 84 0
83 -68 547 -84 0
83 68 -548 84 0
83 68 548 -84 0
-84 -69 -549 85 0
-84 -69 549 -85 0
-84 69 -550 85 0
-84 69 550 -85 0
84 -69 -551 85 0
84 -69 551 -85 0
84 69 -552 85 0
84 69 552 -85 0
-85 -70 -553 86 0
-85 -70 553 -86 0
-85 70 -554 86 0
-85 70 554 -86 0
85 -70 -555 86 0
85 -70 555 -86 0
85 70 -556 86 0
85 70 556 -86 0
-86 -71 -557 87 0
-86 -71 557 -87 0
-86 71 -558 87 0
-86 71 558 -87 0
86 -71 -559 87 0
86 -71 559 -87 0
86 71 -560 87 0
86 71 560 -87 0
-87 -72  -88 0
-87 72 88 0
87 -72  -88 0
87 72  -88 0
-88 -73  -89 0
-88 73  -89 0
88 -73 89 0
88 73  -89 0
-89 -74  -90 0
-89 74 90 0
89 -74 90 0
89 74  -90 0
-90 -75  -91 0
-90 75  -91 0
90 -75 91 0
90 75  -91 0
-91 -76  -92 0
-91 76 92 0
91 -76 92 0
91 76  -92 0
-92 -77  -93 0
-92 77  -93 0
92 -77 93 0
92 77 93 0
-93 -78 94 0
-93 78 94 0
93 -78  -94 0
93 78  -94 0
-94 -79  -95 0
-94 79  -95 0
94 -79  -95 0
94 79 95 0
-95 -80 -593 96 0
-95 -80 593 -96 0
-95 80 -594 96 0
-95 80 594 -96 0
95 -80 -595 96 0
95 -80 595 -96 0
95 80 -596 96 0
95 80 596 -96 0
-81 97 0
81  -97 0
-97 -82  -98 0
-97 82  -98 0
97 -82 98 0
97 82 98 0
-98 -83  -99 0
-98 83  -99 0
98 -83  -99 0
98 83 99 0
-99 -84  -100 0
-99 84 100 0
99 -84 100 0
99 84  -100 0
-100 -85  -101 0
-100 85  -101 0
100 -85 101 0
100 85  -101 0
-101 -86 -615 102 0
-101 -86 615 -102 0
-101 86 -616 102 0
-101 86 616 -102 0
101 -86 -617 102 0
101 -86 617 -102 0
101 86 -618 102 0
101 86 618 -102 0
-102 -87 103 0
-102 87 103 0
102 -87 103 0
102 87  -103 0
-103 -88 104 0
-103 88  -104 0
103 -88  -104 0
103 88  -104 0
-104 -89  -105 0
-104 89 105 0
104 -89  -105 0
104 89  -105 0
-105 -90 106 0
-105 90 106 0
105 -90 106 0
105 90  -106 0
-106 -91 -635 107 0
-106 -91 635 -107 0
-106 91 -636 107 0
-106 91 636 -107 0
106 -91 -637 107 0
106 -91 637 -107 0
106 91 -638 107 0
106 91 638 -107 0
-107 -92 -639 108 0
-107 -92 639 -108 0
-107 92 -640 108 0
-107 92 640 -108 0
107 -92 -641 108 0
107 -92 641 -108 0
107 92 -642 108 0
107 92 642 -108 0
-108 -93  -109 0
-108 93 109 0
108 -93 109 0
108 93 109 0
-109 -94 110 0
-109 94 110 0
109 -94  -110 0
109 94 110 0
-110 -95 -651 111 0
-110 -95 651 -111 0
-110 95 -652 111 0
-110 95 652 -111 0
110 -95 -653 111 0
110 -95 653 -111 0
110 95 -654 111 0
110 95 654 -111 0
-111 -96 112 0
-111 96 112 0
111 -96 112 0
111 96  -112 0
-97 -659 113 0
-97 659 -113 0
97 -660 113 0
97 660 -113 0
-113 -98  -114 0
-113 98  -114 0
113 -98 114 0
113 98 114 0
-114 -99 -665 115 0
-114 -99 665 -115 0
-114 99 -666 115 0
-114 99 666 -115 0
114 -99 -667 115 0
114 -99 667 -115 0
114 99 -668 115 0
114 99 668 -115 0
-115 -100  -116 0
-115 100  -116 0
115 -100 116 0
115 100 116 0
-116 -101 117 0
-116 101  -117 0
116 -101 117 0
116 101 117 0
-117 -102  -118 0
-117 102  -118 0
117 -102 118 0
117 102 118 0
-118 -103 -681 119 0
-118 -103 681 -119 0
-118 103 -682 119 0
-118 103 682 -119 0
118 -103 -683 119 0
118 -103 683 -119 0
118 103 -684 119 0
118 103 684 -119 0
-119 -104 120 0
-119 104 120 0
119 -104  -120 0
119 104 120 0
-120 -105  -121 0
-120 105 121 0
120 -105 121 0
120 105 121 0
-121 -106 -693 122 0
-121 -106 693 -122 0
-121 106 -694 122 0
-121 106 694 -122 0
121 -106 -695 122 0
121 -106 695 -122 0
121 106 -696 122 0
121 106 696 -122 0
-122 -107  -123 0
-122 107  -123 0
122 -107  -123 0
122 107 123 0
-123 -108 124 0
-123 108 124 0
123 -108  -124 0
123 108  -124 0
-124 -109 125 0
-124 109  -125 0
124 -109 125 0
124 109  -125 0
-125 -110 -709 126 0
-125 -110 709 -126 0
-125 110 -710 126 0
-125 110 710 -126 0
125 -110 -711 126 0
125 -110 711 -126 0
125 110 -712 126 0
125 110 712 -126 0
-126 -111  -127 0
-126 111 127 0
126 -111  -127 0
126 111 127 0
-127 -112  -128 0
-127 112  -128 0
127 -112 128 0
127 112 128 0
-113 129 0
113  -129 0
-129 -114 -723 130 0
-129 -114 723 -130 0
-129 114 -724 130 0
-129 114 724 -130 0
129 -114 -725 130 0
129 -114 725 -130 0
129 114 -726 130 0
129 114 726 -130 0
-130 -115  -131 0
-130 115  -131 0
130 -115 131 0
130 115 131 0
-131 -116  -132 0
-131 116  -132 0
131 -116 132 0
131 116 132 0
-132 -117 133 0
-132 117 133 0
132 -117 133 0
132 117  -133 0
-133 -118 134 0
-133 118  -134 0
133 -118  -134 0
133 118  -134 0
-134 -119 -743 135 0
-134 -119 743 -135 0
-134 119 -744 135 0
-134 119 744 -135 0
134 -119 -745 135 0
134 -119 745 -135 0
134 119 -746 135 0
134 119 746 -135 0
-135 -120  -136 0
-135 120 136 0
135 -120  -136 0
135 120  -136 0
-136 -121 -751 137 0
-136 -121 751 -137 0
-136 121 -752 137 0
-136 121 752 -137 0
136 -121 -753 137 0
136 -121 753 -137 0
136 121 -754 137 0
136 121 754 -137 0
-137 -122 -755 138 0
-137 -122 755 -138 0
-137 122 -756 138 0
-137 122 756 -138 0
137 -122 -757 138 0
137 -122 757 -138 0
137 122 -758 138 0
137 122 758 -138 0
-138 -123 -759 139 0
-138 -123 759 -139 0
-138 123 -760 139 0
-138 123 760 -139 0
138 -123 -761 139 0
138 -123 761 -139 0
138 123 -762 139 0
138 123 762 -139 0
-139 -124 140 0
-139 124  -140 0
139 -124 140 0
139 124 140 0
-140 -125  -141 0
-140 125  -141 0
140 -125 141 0
140 125  -141 0
-141 -126 142 0
-141 126  -142 0
141 -126  -142 0
141 126  -142 0
-142 -127  -143 0
-142 127  -143 0
142 -127  -143 0
142 127 143 0
-143 -128  -144 0
-143 128  -144 0
143 -128 144 0
143 128  -144 0
-129 -783 145 0
-129 783 -145 0
129 -784 145 0
129 784 -145 0
-145 -130 -785 146 0
-145 -130 785 -146 0
-145 130 -786 146 0
-145 130 786 -146 0
145 -130 -787 146 0
145 -130 787 -146 0
145 130 -788 146 0
145 130 788 -146 0
-146 -131  -147 0
-146 131 147 0
146 -131 147 0
146 131  -147 0
-147 -132 148 0
-147 132  -148 0
147 -132 148 0
147 132  -148 0
-148 -133 149 0
-148 133  -149 0
148 -133 149 0
148 133 149 0
-149 -134  -150 0
-149 134 150 0
149 -134  -150 0
149 134  -150 0
-150 -135 151 0
-150 135  -151 0
150 -135  -151 0
150 135  -151 0
-151 -136 -809 152 0
-151 -136 809 -152 0
-151 136 -810 152 0
-151 136 810 -152 0
151 -136 -811 152 0
151 -136 811 -152 0
151 136 -812 152 0
151 136 812 -152 0
-152 -137  -153 0
-152 137 153 0
152 -137 153 0
152 137 153 0
-153 -138 -817 154 0
-153 -138 817 -154 0
-153 138 -818 154 0
-153 138 818 -154 0
153 -138 -819 154 0
153 -138 819 -154 0
153 138 -820 154 0
153 138 820 -154 0
-154 -139 155 0
-154 139  -155 0
154 -139 155 0
154 139 155 0
-155 -140 156 0
-155 140 156 0
155 -140  -156 0
155 140  -156 0
-156 -141 -829 157 0
-156 -141 829 -157 0
-156 141 -830 157 0
-156 141 830 -157 0
156 -141 -831 157 0
156 -141 831 -157 0
156 141 -832 157 0
156 141 832 -157 0
-157 -142 -833 158 0
-157 -142 833 -158 0
-157 142 -834 158 0
-157 142 834 -158 0
157 -142 -835 158 0
157 -142 835 -158 0
157 142 -836 158 0
157 142 836 -158 0
-158 -143  -159 0
-158 143 159 0
158 -143  -159 0
158 143  -159 0
-159 -144 160 0
-159 144 160 0
159 -144  -160 0
159 144  -160 0
-145 -845 161 0
-145 845 -161 0
145 -846 161 0
145 846 -161 0
-161 -146 -847 162 0
-161 -146 847 -162 0
-161 146 -848 162 0
-161 146 848 -162 0
161 -146 -849 162 0
161 -146 849 -162 0
161 146 -850 162 0
161 146 850 -162 0
-162 -147 163 0
-162 147 163 0
162 -147  -163 0
162 147 163 0
-163 -148 164 0
-163 148 164 0
163 -148  -164 0
163 148 164 0
-164 -149 165 0
-164 149  -165 0
164 -149  -165 0
164 149 165 0
-165 -150  -166 0
-165 150 166 0
165 -150 166 0
165 150 166 0
-166 -151 167 0
-166 151 167 0
166 -151  -167 0
166 151  -167 0
-167 -152 -871 168 0
-167 -152 871 -168 0
-167 152 -872 168 0
-167 152 872 -168 0
167 -152 -873 168 0
167 -152 873 -168 0
167 152 -874 168 0
167 152 874 -168 0
-168 -153 -875 169 0
-168 -153 875 -169 0
-168 153 -876 169 0
-168 153 876 -169 0
168 -153 -877 169 0
168 -153 877 -169 0
168 153 -878 169 0
168 153 878 -169 0
-169 -154  -170 0
-169 154 170 0
169 -154 170 0
169 154  -170 0
-170 -155 -883 171 0
-170 -155 883 -171 0
-170 155 -884 171 0
-170 155 884 -171 0
170 -155 -885 171 0
170 -155 885 -171 0
170 155 -886 171 0
170 155 886 -171 0
-171 -156 -887 172 0
-171 -156 887 -172 0
-171 156 -888 172 0
-171 156 888 -172 0
171 -156 -889 172 0
171 -156 889 -172 0
171 156 -890 172 0
171 156 890 -172 0
-172 -157 173 0
-172 157 173 0
172 -157  -173 0
172 157 173 0
-173 -158 -895 174 0
-173 -158 895 -174 0
-173 158 -896 174 0
-173 158 896 -174 0
173 -158 -897 174 0
173 -158 897 -174 0
173 158 -898 174 0
173 158 898 -174 0
-174 -159 175 0
-174 159  -175 0
174 -159 175 0
174 159 175 0
-175 -160  -176 0
-175 160 176 0
175 -160  -176 0
175 160 176 0
-161 177 0
161  -177 0
-177 -162 178 0
-177 162  -178 0
177 -162 178 0
177 162  -178 0
-178 -163 -913 179 0
-178 -163 913 -179 0
-178 163 -914 179 0
-178 163 914 -179 0
178 -163 -915 179 0
178 -163 915 -179 0
178 163 -916 179 0
178 163 916 -179 0
-179 -164  -180 0
-179 164  -180 0
179 -164  -180 0
179 164 180 0
-180 -165 181 0
-180 165  -181 0
180 -165  -181 0
180 165  -181 0
-181 -166  -182 0
-181 166 182 0
181 -166 182 0
181 166  -182 0
-182 -167  -183 0
-182 167  -183 0
182 -167 183 0
182 167 183 0
-183 -168 184 0
-183 168  -184 0
183 -168 184 0
183 168  -184 0
-184 -169  -185 0
-184 169  -185 0
184 -169 185 0
184 169  -185 0
-185 -170 -941 186 0
-185 -170 941 -186 0
-185 170 -942 186 0
-185 170 942 -186 0
185 -170 -943 186 0
185 -170 943 -186 0
185 170 -944 186 0
185 170 944 -186 0
-186 -171 187 0
-186 171  -187 0
186 -171  -187 0
186 171  -187 0
-187 -172  -188 0
-187 172  -188 0
187 -172 188 0
187 172 188 0
-188 -173 -953 189 0
-188 -173 953 -189 0
-188 173 -954 189 0
-188 173 954 -189 0
188 -173 -955 189 0
188 -173 955 -189 0
188 173 -956 189 0
188 173 956 -189 0
-189 -174  -190 0
-189 174  -190 0
189 -174 190 0
189 174  -190 0
-190 -175  -191 0
-190 175  -191 0
190 -175 191 0
190 175 191 0
-191 -176 -965 192 0
-191 -176 965 -192 0
-191 176 -966 192 0
-191 176 966 -192 0
191 -176 -967 192 0
191 -176 967 -192 0
191 176 -968 192 0
191 176 968 -192 0
-177 193 0
177  -193 0
-193 -178 -971 194 0
-193 -178 971 -194 0
-193 178 -972 194 0
-193 178 972 -194 0
193 -178 -973 194 0
193 -178 973 -194 0
193 178 -974 194 0
193 178 974 -194 0
-194 -179 -975 195 0
-194 -179 975 -195 0
-194 179 -976 195 0
-194 179 976 -195 0
194 -179 -977 195 0
194 -179 977 -195 0
194 179 -978 195 0
194 179 978 -195 0
-195 -180 196 0
-195 180  -196 0
195 -180 196 0
195 180  -196 0
-196 -181  -197 0
-196 181 197 0
196 -181 197 0
196 181  -197 0
-197 -182 198 0
-197 182 198 0
197 -182  -198 0
197 182 198 0
-198 -183  -199 0
-198 183  -199 0
198 -183 199 0
198 183  -199 0
-199 -184  -200 0
-199 184 200 0
199 -184 200 0
199 184  -200 0
-200 -185 201 0
-200 185 201 0
200 -185 201 0
200 185  -201 0
-201 -186 202 0
-201 186 202 0
201 -186 202 0
201 186  -202 0
-202 -187  -203 0
-202 187  -203 0
202 -187 203 0
202 187 203 0
-203 -188 -1011 204 0
-203 -188 1011 -204 0
-203 188 -1012 204 0
-203 188 1012 -204 0
203 -188 -1013 204 0
203 -188 1013 -204 0
203 188 -1014 204 0
203 188 1014 -204 0
-204 -189 205 0
-204 189 205 0
204 -189  -205 0
204 189  -205 0
-205 -190 -1019 206 0
-205 -190 1019 -206 0
-205 190 -1020 206 0
-205 190 1020 -206 0
205 -190 -1021 206 0
205 -190 1021 -206 0
205 190 -1022 206 0
205 190 1022 -206 0
-206 -191  -207 0
-206 191  -207 0
206 -191  -207 0
206 191 207 0
-207 -192 208 0
-207 192  -208 0
207 -192  -208 0
207 192 208 0
-193 209 0
193  -209 0
-209 -194 210 0
-209 194  -210 0
209 -194 210 0
209 194  -210 0
-210 -195 211 0
-210 195  -211 0
210 -195  -211 0
210 195 211 0
-211 -196 212 0
-211 196  -212 0
211 -196  -212 0
211 196  -212 0
-212 -197  -213 0
-212 197 213 0
212 -197 213 0
212 197 213 0
-213 -198 214 0
-213 198  -214 0
213 -198  -214 0
213 198 214 0
-214 -199  -215 0
-214 199 215 0
214 -199  -215 0
214 199  -215 0
-215 -200  -216 0
-215 200 216 0
215 -200 216 0
215 200 216 0
-216 -201 217 0
-216 201  -217 0
216 -201  -217 0
216 201  -217 0
-217 -202 -1065 218 0
-217 -202 1065 -218 0
-217 202 -1066 218 0
-217 202 1066 -218 0
217 -202 -1067 218 0
217 -202 1067 -218 0
217 202 -1068 218 0
217 202 1068 -218 0
-218 -203  -219 0
-218 203 219 0
218 -203 219 0
218 203 219 0
-219 -204  -220 0
-219 204 220 0
219 -204  -220 0
219 204 220 0
-220 -205  -221 0
-220 205 221 0
220 -205 221 0
220 205  -221 0
-221 -206 -1081 222 0
-221 -206 1081 -222 0
-221 206 -1082 222 0
-221 206 1082 -222 0
221 -206 -1083 222 0
221 -206 1083 -222 0
221 206 -1084 222 0
221 206 1084 -222 0
-222 -207  -223 0
-222 207 223 0
222 -207 223 0
222 207  -223 0
-223 -208 224 0
-223 208  -224 0
223 -208 224 0
223 208  -224 0
-209 -1093 225 0
-209 1093 -225 0
209 -1094 225 0
209 1094 -225 0
-225 -210 -1095 226 0
-225 -210 1095 -226 0
-225 210 -1096 226 0
-225 210 1096 -226 0
225 -210 -1097 226 0
225 -210 1097 -226 0
225 210 -1098 226 0
225 210 1098 -226 0
-226 -211 227 0
-226 211 227 0
226 -211  -227 0
226 211 227 0
-227 -212  -228 0
-227 212 228 0
227 -212  -228 0
227 212 228 0
-228 -213  -229 0
-228 213  -229 0
228 -213 229 0
228 213  -229 0
-229 -214  -230 0
-229 214  -230 0
229 -214  -230 0
229 214 230 0
-230 -215 231 0
-230 215  -231 0
230 -215  -231 0
230 215  -231 0
-231 -216 -1119 232 0
-231 -216 1119 -232 0
-231 216 -1120 232 0
-231 216 1120 -232 0
231 -216 -1121 232 0
231 -216 1121 -232 0
231 216 -1122 232 0
231 216 1122 -232 0
-232 -217  -233 0
-232 217 233 0
232 -217 233 0
232 217  -233 0
-233 -218  -234 0
-233 218  -234 0
233 -218 234 0
233 218  -234 0
-234 -219 -1131 235 0
-234 -219 1131 -235 0
-234 219 -1132 235 0
-234 219 1132 -235 0
234 -219 -1133 235 0
234 -219 1133 -235 0
234 219 -1134 235 0
234 219 1134 -235 0
-235 -220 236 0
-235 220 236 0
235 -220 236 0
235 220  -236 0
-236 -221  -237 0
-236 221  -237 0
236 -221  -237 0
236 221 237 0
-237 -222 -1143 238 0
-237 -222 1143 -238 0
-237 222 -1144 238 0
-237 222 1144 -238 0
237 -222 -1145 238 0
237 -222 1145 -238 0
237 222 -1146 238 0
237 222 1146 -238 0
-238 -223 239 0
-238 223 239 0
238 -223  -239 0
238 223  -239 0
-239 -224 -1151 240 0
-239 -224 1151 -240 0
-239 224 -1152 240 0
-239 224 1152 -240 0
239 -224 -1153 240 0
239 -224 1153 -240 0
239 224 -1154 240 0
239 224 1154 -240 0
-225  -241 0
225 241 0
-241 -226  -242 0
-241 226 242 0
241 -226 242 0
241 226 242 0
-242 -227  -243 0
-242 227 243 0
242 -227 243 0
242 227  -243 0
-243 -228 244 0
-243 228  -244 0
243 -228 244 0
243 228 244 0
-244 -229  -245 0
-244 229 245 0
244 -229  -245 0
244 229  -245 0
-245 -230  -246 0
-245 230  -246 0
245 -230  -246 0
245 230 246 0
-246 -231 -1177 247 0
-246 -231 1177 -247 0
-246 231 -1178 247 0
-246 231 1178 -247 0
246 -231 -1179 247 0
246 -231 1179 -247 0
246 231 -1180 247 0
246 231 1180 -247 0
-247 -232 248 0
-247 232  -248 0
247 -232 248 0
247 232 248 0
-248 -233 249 0
-248 233 249 0
248 -233  -249 0
248 233  -249 0
-249 -234 -1189 250 0
-249 -234 1189 -250 0
-249 234 -1190 250 0
-249 234 1190 -250 0
249 -234 -1191 250 0
249 -234 1191 -250 0
249 234 -1192 250 0
249 234 1192 -250 0
-250 -235 251 0
-250 235  -251 0
250 -235  -251 0
250 235 251 0
-251 -236  -252 0
-251 236 252 0
251 -236  -252 0
251 236 252 0
-252 -237  -253 0
-252 237 253 0
252 -237  -253 0
252 237 253 0
-253 -238  -254 0
-253 238 254 0
253 -238 254 0
253 238 254 0
-254 -239  -255 0
-254 239  -255 0
254 -239 255 0
254 239 255 0
-255 -240 256 0
-255 240 256 0
255 -240 256 0
255 240  -256 0
256 0
